c Result of efficient AIG-to-CNF conversion using package CNF
p cnf 178 562
2 -3 105 0
2 3 -105 0
-2 3 105 0
-2 -3 -105 0
3 -4 103 0
3 4 -103 0
-3 4 103 0
-3 -4 -103 0
4 -115 -36 0
4 -115 5 0
4 5 -36 0
-4 -5 36 0
-4 115 36 0
-4 115 -5 0
5 6 -7 0
5 -6 7 0
-5 -6 -7 0
-5 6 7 0
-6 -115 -147 0
-6 115 147 0
6 115 -147 0
6 -115 147 0
7 116 -148 0
7 -148 -8 0
7 116 -8 0
-7 148 8 0
-7 -116 148 0
-7 -116 8 0
8 117 -149 0
8 -149 -9 0
8 117 -9 0
-8 149 9 0
-8 -117 149 0
-8 -117 9 0
9 118 -150 0
9 -150 -10 0
9 118 -10 0
-9 150 10 0
-9 -118 150 0
-9 -118 10 0
10 119 -151 0
10 -151 -11 0
10 119 -11 0
-10 151 11 0
-10 -119 151 0
-10 -119 11 0
11 120 -152 0
11 -152 -12 0
11 120 -12 0
-11 152 12 0
-11 -120 152 0
-11 -120 12 0
12 121 -153 0
12 -153 -13 0
12 121 -13 0
-12 153 13 0
-12 -121 153 0
-12 -121 13 0
13 122 -154 0
13 -154 -14 0
13 122 -14 0
-13 154 14 0
-13 -122 154 0
-13 -122 14 0
14 123 -155 0
14 -155 -15 0
14 123 -15 0
-14 155 15 0
-14 -123 155 0
-14 -123 15 0
15 124 -156 0
15 -156 -16 0
15 124 -16 0
-15 156 16 0
-15 -124 156 0
-15 -124 16 0
16 125 -157 0
16 -157 -17 0
16 125 -17 0
-16 157 17 0
-16 -125 157 0
-16 -125 17 0
17 126 -158 0
17 -158 -18 0
17 126 -18 0
-17 158 18 0
-17 -126 158 0
-17 -126 18 0
18 127 -159 0
18 -159 -19 0
18 127 -19 0
-18 159 19 0
-18 -127 159 0
-18 -127 19 0
19 128 -160 0
19 -160 -20 0
19 128 -20 0
-19 160 20 0
-19 -128 160 0
-19 -128 20 0
20 129 -161 0
20 -161 -21 0
20 129 -21 0
-20 161 21 0
-20 -129 161 0
-20 -129 21 0
21 130 -162 0
21 -162 -22 0
21 130 -22 0
-21 162 22 0
-21 -130 162 0
-21 -130 22 0
22 131 -163 0
22 -163 -23 0
22 131 -23 0
-22 163 23 0
-22 -131 163 0
-22 -131 23 0
23 132 -164 0
23 -164 -24 0
23 132 -24 0
-23 164 24 0
-23 -132 164 0
-23 -132 24 0
24 133 -165 0
24 -165 -25 0
24 133 -25 0
-24 165 25 0
-24 -133 165 0
-24 -133 25 0
25 134 -166 0
25 -166 -26 0
25 134 -26 0
-25 166 26 0
-25 -134 166 0
-25 -134 26 0
26 135 -167 0
26 -167 -27 0
26 135 -27 0
-26 167 27 0
-26 -135 167 0
-26 -135 27 0
27 -168 -28 0
27 136 -28 0
27 136 -168 0
-27 -136 28 0
-27 -136 168 0
-27 168 28 0
-28 169 29 0
-28 -137 169 0
-28 -137 29 0
28 137 -169 0
28 -169 -29 0
28 137 -29 0
29 138 -170 0
29 -170 -30 0
29 138 -30 0
-29 170 30 0
-29 -138 170 0
-29 -138 30 0
30 139 -171 0
30 -171 -31 0
30 139 -31 0
-30 171 31 0
-30 -139 171 0
-30 -139 31 0
31 140 -172 0
31 -172 -32 0
31 140 -32 0
-31 172 32 0
-31 -140 172 0
-31 -140 32 0
32 141 -173 0
32 -173 -33 0
32 141 -33 0
-32 173 33 0
-32 -141 173 0
-32 -141 33 0
33 142 -174 0
33 -174 -34 0
33 142 -34 0
-33 174 34 0
-33 -142 174 0
-33 -142 34 0
34 143 -175 0
34 -175 -35 0
34 143 -35 0
-34 175 35 0
-34 -143 175 0
-34 -143 35 0
35 144 -176 0
35 145 -176 -177 0
35 144 145 -177 0
-35 -144 -145 0
-35 -145 176 0
-35 -144 176 0
-35 176 177 0
-35 -144 177 0
36 -116 -39 0
36 -116 37 0
36 37 -39 0
-36 -37 39 0
-36 116 39 0
-36 116 -37 0
37 -8 38 0
37 8 -38 0
-37 8 38 0
-37 -8 -38 0
-38 -116 -148 0
-38 116 148 0
38 116 -148 0
38 -116 148 0
39 -117 -42 0
39 -117 40 0
39 40 -42 0
-39 -40 42 0
-39 117 42 0
-39 117 -40 0
40 -9 41 0
40 9 -41 0
-40 9 41 0
-40 -9 -41 0
-41 -117 -149 0
-41 117 149 0
41 117 -149 0
41 -117 149 0
42 -118 -45 0
42 -118 43 0
42 43 -45 0
-42 -43 45 0
-42 118 45 0
-42 118 -43 0
43 -10 44 0
43 10 -44 0
-43 10 44 0
-43 -10 -44 0
-44 -118 -150 0
-44 118 150 0
44 118 -150 0
44 -118 150 0
45 -119 -48 0
45 -119 46 0
45 46 -48 0
-45 -46 48 0
-45 119 48 0
-45 119 -46 0
46 -11 47 0
46 11 -47 0
-46 11 47 0
-46 -11 -47 0
-47 -119 -151 0
-47 119 151 0
47 119 -151 0
47 -119 151 0
48 -120 -51 0
48 -120 49 0
48 49 -51 0
-48 -49 51 0
-48 120 51 0
-48 120 -49 0
49 -12 50 0
49 12 -50 0
-49 12 50 0
-49 -12 -50 0
-50 -120 -152 0
-50 120 152 0
50 120 -152 0
50 -120 152 0
51 -121 -54 0
51 -121 52 0
51 52 -54 0
-51 -52 54 0
-51 121 54 0
-51 121 -52 0
52 -13 53 0
52 13 -53 0
-52 13 53 0
-52 -13 -53 0
-53 -121 -153 0
-53 121 153 0
53 121 -153 0
53 -121 153 0
54 -122 -57 0
54 -122 55 0
54 55 -57 0
-54 -55 57 0
-54 122 57 0
-54 122 -55 0
55 -14 56 0
55 14 -56 0
-55 14 56 0
-55 -14 -56 0
-56 -122 -154 0
-56 122 154 0
56 122 -154 0
56 -122 154 0
57 -123 -60 0
57 -123 58 0
57 58 -60 0
-57 -58 60 0
-57 123 60 0
-57 123 -58 0
58 -15 59 0
58 15 -59 0
-58 15 59 0
-58 -15 -59 0
-59 -123 -155 0
-59 123 155 0
59 123 -155 0
59 -123 155 0
60 -124 -63 0
60 -124 61 0
60 61 -63 0
-60 -61 63 0
-60 124 63 0
-60 124 -61 0
61 -16 62 0
61 16 -62 0
-61 16 62 0
-61 -16 -62 0
-62 -124 -156 0
-62 124 156 0
62 124 -156 0
62 -124 156 0
63 -125 -66 0
63 -125 64 0
63 64 -66 0
-63 -64 66 0
-63 125 66 0
-63 125 -64 0
64 -17 65 0
64 17 -65 0
-64 17 65 0
-64 -17 -65 0
-65 -125 -157 0
-65 125 157 0
65 125 -157 0
65 -125 157 0
66 -126 -69 0
66 -126 67 0
66 67 -69 0
-66 -67 69 0
-66 126 69 0
-66 126 -67 0
67 -18 68 0
67 18 -68 0
-67 18 68 0
-67 -18 -68 0
-68 -126 -158 0
-68 126 158 0
68 126 -158 0
68 -126 158 0
69 -127 -72 0
69 -127 70 0
69 70 -72 0
-69 -70 72 0
-69 127 72 0
-69 127 -70 0
70 -19 71 0
70 19 -71 0
-70 19 71 0
-70 -19 -71 0
-71 -127 -159 0
-71 127 159 0
71 127 -159 0
71 -127 159 0
72 -128 -75 0
72 -128 73 0
72 73 -75 0
-72 -73 75 0
-72 128 75 0
-72 128 -73 0
73 -20 74 0
73 20 -74 0
-73 20 74 0
-73 -20 -74 0
-74 -128 -160 0
-74 128 160 0
74 128 -160 0
74 -128 160 0
75 -129 -78 0
75 -129 76 0
75 76 -78 0
-75 -76 78 0
-75 129 78 0
-75 129 -76 0
76 -21 77 0
76 21 -77 0
-76 21 77 0
-76 -21 -77 0
-77 -129 -161 0
-77 129 161 0
77 129 -161 0
77 -129 161 0
78 -130 -81 0
78 -130 79 0
78 79 -81 0
-78 -79 81 0
-78 130 81 0
-78 130 -79 0
79 -22 80 0
79 22 -80 0
-79 22 80 0
-79 -22 -80 0
-80 -130 -162 0
-80 130 162 0
80 130 -162 0
80 -130 162 0
81 -131 -84 0
81 -131 82 0
81 82 -84 0
-81 -82 84 0
-81 131 84 0
-81 131 -82 0
82 -23 83 0
82 23 -83 0
-82 23 83 0
-82 -23 -83 0
-83 -131 -163 0
-83 131 163 0
83 131 -163 0
83 -131 163 0
84 -132 -87 0
84 -132 85 0
84 85 -87 0
-84 -85 87 0
-84 132 87 0
-84 132 -85 0
85 -24 86 0
85 24 -86 0
-85 24 86 0
-85 -24 -86 0
-86 -132 -164 0
-86 132 164 0
86 132 -164 0
86 -132 164 0
87 -133 -90 0
87 -133 88 0
87 88 -90 0
-87 -88 90 0
-87 133 90 0
-87 133 -88 0
88 -25 89 0
88 25 -89 0
-88 25 89 0
-88 -25 -89 0
-89 -133 -165 0
-89 133 165 0
89 133 -165 0
89 -133 165 0
90 -134 -93 0
90 -134 91 0
90 91 -93 0
-90 -91 93 0
-90 134 93 0
-90 134 -91 0
91 -26 92 0
91 26 -92 0
-91 26 92 0
-91 -26 -92 0
-92 -134 -166 0
-92 134 166 0
92 134 -166 0
92 -134 166 0
93 94 -96 0
93 -135 94 0
93 -135 -96 0
-93 135 -94 0
-93 -94 96 0
-93 135 96 0
94 -27 95 0
94 27 -95 0
-94 27 95 0
-94 -27 -95 0
-95 -135 -167 0
-95 135 167 0
95 135 -167 0
95 -135 167 0
-96 136 -168 0
-96 136 -28 0
-96 -168 -28 0
-96 168 28 97 0
96 -136 168 -28 0
96 168 28 -97 0
96 -136 -168 28 0
-97 169 98 99 0
97 -99 0
97 -98 0
97 -169 0
-98 170 30 0
98 -170 0
98 -30 0
-99 171 100 101 102 0
99 -171 0
99 -102 0
99 -101 0
99 -100 0
-100 173 33 0
100 -173 0
100 -33 0
-101 172 32 0
101 -172 0
101 -32 0
-102 174 175 176 177 0
102 -177 0
102 -176 0
102 -174 0
102 -175 0
-103 -146 -104 0
-103 146 104 0
103 146 -104 0
103 -146 104 0
104 115 -147 0
104 -147 -7 0
104 115 -7 0
-104 147 7 0
-104 -115 147 0
-104 -115 7 0
-105 146 106 0
-105 -146 -106 0
105 -146 106 0
105 146 -106 0
-106 147 148 149 107 0
106 -107 0
106 -149 0
106 -147 0
106 -148 0
-107 150 151 152 108 0
107 -108 0
107 -152 0
107 -150 0
107 -151 0
-108 153 154 155 109 0
108 -109 0
108 -155 0
108 -153 0
108 -154 0
-109 156 157 158 110 0
109 -110 0
109 -158 0
109 -156 0
109 -157 0
-110 159 160 161 111 0
110 -111 0
110 -161 0
110 -159 0
110 -160 0
-111 162 163 164 112 0
111 -112 0
111 -164 0
111 -162 0
111 -163 0
-112 165 166 167 113 0
112 -113 0
112 -167 0
112 -165 0
112 -166 0
-113 168 97 0
113 -168 0
113 -97 0
-178 0
2 0

